data/solutions/recovery/wellformed/moderate/flexible/wellformed_moderate_instance89/65.sol
Elapsed time: 72.49
Upper bound: 7254.0
Planning weighted value: 438634.0
C[0]=7254.0
C[1]=7253.0
C[2]=7247.0
C[3]=7228.0
C[4]=7206.0
C[5]=7175.0
y[0]=3
y[1]=4
y[2]=1
y[3]=4
y[4]=5
y[5]=5
y[6]=3
y[7]=2
y[8]=3
y[9]=3
y[10]=0
y[11]=0
y[12]=2
y[13]=4
y[14]=1
y[15]=4
y[16]=5
y[17]=1
y[18]=2
y[19]=4
y[20]=0
y[21]=3
y[22]=5
y[23]=0
y[24]=2
y[25]=1
y[26]=2
y[27]=5
y[28]=3
y[29]=0
y[30]=1
y[31]=0
y[32]=4
y[33]=1
y[34]=0
y[35]=5
y[36]=3
y[37]=2
y[38]=1
y[39]=3
y[40]=4
y[41]=5
