data/solutions/recovery/wellformed/moderate/flexible/wellformed_moderate_instance89/65.log

Log started (V12.6.3.0) Fri Apr 20 19:48:23 2018

New value for default parallel thread count: 1

Problem '/tmp/tmptUzOKn.pyomo.lp' read.
Read time = 0.00 sec. (0.13 ticks)

Problem name         : /tmp/tmptUzOKn.pyomo.lp
Objective sense      : Minimize
Variables            :     260  [Nneg: 1,  Binary: 252,  General Integer: 7]
Objective nonzeros   :       1
Linear constraints   :      97  [Less: 48,  Equal: 49]
  Nonzeros           :    8917
  RHS nonzeros       :      85

Variables            : Min LB: 0.000000         Max UB: 1.000000       
Objective nonzeros   : Min   : 1.000000         Max   : 1.000000       
Linear constraints   :
  Nonzeros           : Min   : 1.000000         Max   : 1980.000       
  RHS nonzeros       : Min   : 1.000000         Max   : 5.000000       
Tried aggregator 2 times.
MIP Presolve eliminated 42 rows and 6 columns.
Aggregator did 7 substitutions.
Reduced MIP has 48 rows, 247 columns, and 693 nonzeros.
Reduced MIP has 246 binaries, 1 generals, 0 SOSs, and 0 indicators.
Presolve time = 0.00 sec. (2.20 ticks)
Found incumbent of value 43363.000000 after 0.00 sec. (2.69 ticks)
Probing time = 0.00 sec. (0.26 ticks)
Cover probing fixed 0 vars, tightened 4 bounds.
Tried aggregator 1 time.
Reduced MIP has 48 rows, 247 columns, and 693 nonzeros.
Reduced MIP has 246 binaries, 1 generals, 0 SOSs, and 0 indicators.
Presolve time = 0.00 sec. (0.41 ticks)
Probing time = 0.00 sec. (0.18 ticks)
Clique table members: 41.
MIP emphasis: balance optimality and feasibility.
MIP search method: dynamic search.
Parallel mode: none, using 1 thread.
Root relaxation solution time = 0.00 sec. (0.21 ticks)

        Nodes                                         Cuts/
   Node  Left     Objective  IInf  Best Integer    Best Bound    ItCnt     Gap

*     0+    0                        43363.0000     1980.0000            95.43%
      0     0     7227.1667     8    43363.0000     7227.1667       12   83.33%
*     0+    0                         7917.0000     7227.1667             8.71%
      0     0     7228.0000     9     7917.0000      Fract: 5       28    8.70%
*     0+    0                         7873.0000     7228.0000             8.19%
      0     0     7228.0000    15     7873.0000      Cuts: 10       48    8.19%
*     0+    0                         7328.0000     7228.0000             1.36%
      0     0     7228.0000    18     7328.0000       Cuts: 8       67    1.36%
      0     2     7228.0000     8     7328.0000     7228.0000       67    1.36%
Elapsed time = 0.01 sec. (12.76 ticks, tree = 0.01 MB, solutions = 4)
*   970+  417                         7326.0000     7228.0000             1.34%
*  1125   257      integral     0     7318.0000     7228.0000     6224    1.23%
*  1270+  194                         7286.0000     7228.0000             0.80%
*  1370+  207                         7272.0000     7228.0000             0.61%
   1370   209     7228.0000    10     7272.0000     7228.0000     7316    0.61%
   1371   209     7228.0000    10     7272.0000     7228.0000     7319    0.61%
   1372   210     7228.0000    12     7272.0000     7228.0000     7322    0.61%
   1373   211     7228.0000    10     7272.0000     7228.0000     7325    0.61%
   1374   212     7228.0000    14     7272.0000     7228.0000     7329    0.61%
   1375   213     7228.0000    14     7272.0000     7228.0000     7344    0.61%
   1376   213     7228.0000    14     7272.0000     7228.0000     7345    0.61%
   1377   213     7228.0000    14     7272.0000     7228.0000     7346    0.61%
   1378   214     7228.0000    14     7272.0000     7228.0000     7347    0.61%
*  1670+  379                         7271.0000     7228.0000             0.59%
*  1670+  378                         7260.0000     7228.0000             0.44%
   2170   747     7228.0226    19     7260.0000     7228.0000    13248    0.44%
Elapsed time = 0.93 sec. (1057.10 ticks, tree = 0.22 MB, solutions = 10)
   3846  1714     7255.1940    24     7260.0000     7228.0000    46149    0.44%
   3847  1715     7256.9739    24     7260.0000     7228.0000    46156    0.44%
   3848  1714        cutoff           7260.0000     7228.0000    46171    0.44%
   3849  1713    infeasible           7260.0000     7228.0000    46171    0.44%
   3850  1714     7232.0595    37     7260.0000     7228.0000    46352    0.44%
   3851  1715     7232.2180    36     7260.0000     7228.0000    46356    0.44%
   3852  1716     7233.1667    39     7260.0000     7228.0000    46375    0.44%
   3853  1717     7233.2705    39     7260.0000     7228.0000    46381    0.44%
   3854  1718     7233.2781    39     7260.0000     7228.0000    46382    0.44%
   3855  1719     7233.5953    36     7260.0000     7228.0000    46387    0.44%
Elapsed time = 1.62 sec. (2017.23 ticks, tree = 0.50 MB, solutions = 10)
   4902  2120     7228.0000    40     7260.0000     7228.0000    82465    0.44%
   4903  2121     7228.0000    30     7260.0000     7228.0000    82474    0.44%
   4904  2122     7228.1529    45     7260.0000     7228.0000    82673    0.44%
   4905  2123     7228.2608    46     7260.0000     7228.0000    82690    0.44%
   4906  2123     7233.6235    25     7260.0000     7228.0000    82751    0.44%
   4907  2124     7233.8423    23     7260.0000     7228.0000    82753    0.44%
   4908  2125     7241.0008    12     7260.0000     7228.0000    82770    0.44%
   4909  2124        cutoff           7260.0000     7228.0000    82771    0.44%
   4910  2123        cutoff           7260.0000     7228.0000    82772    0.44%
   4911  2122        cutoff           7260.0000     7228.0000    82829    0.44%
Elapsed time = 2.26 sec. (2979.70 ticks, tree = 0.67 MB, solutions = 10)
   5840  2516        cutoff           7260.0000     7228.0000   117302    0.44%
   5841  2517     7255.0713    32     7260.0000     7228.0000   117475    0.44%
   5842  2516        cutoff           7260.0000     7228.0000   117477    0.44%
   5843  2515    infeasible           7260.0000     7228.0000   117477    0.44%
   5844  2514        cutoff           7260.0000     7228.0000   117574    0.44%
   5845  2513        cutoff           7260.0000     7228.0000   117798    0.44%
   5846  2512        cutoff           7260.0000     7228.0000   117817    0.44%
   5847  2511        cutoff           7260.0000     7228.0000   118053    0.44%
   5848  2510        cutoff           7260.0000     7228.0000   118112    0.44%
   5849  2509        cutoff           7260.0000     7228.0000   118258    0.44%
Elapsed time = 2.90 sec. (3956.42 ticks, tree = 1.02 MB, solutions = 10)
   6992  3119     7241.6682    35     7260.0000     7228.0000   148272    0.44%
   6993  3120     7241.7151    35     7260.0000     7228.0000   148277    0.44%
   6994  3121     7241.7607    25     7260.0000     7228.0000   148279    0.44%
   6995  3120        cutoff           7260.0000     7228.0000   148293    0.44%
   6996  3119        cutoff           7260.0000     7228.0000   148312    0.44%
   6997  3120     7250.2818    33     7260.0000     7228.0000   148512    0.44%
   6998  3121     7250.3493    33     7260.0000     7228.0000   148514    0.44%
   6999  3122     7250.5335    33     7260.0000     7228.0000   148527    0.44%
   7000  3123     7250.5434    32     7260.0000     7228.0000   148533    0.44%
   7001  3124     7251.1265    33     7260.0000     7228.0000   148542    0.44%
Elapsed time = 3.54 sec. (4917.64 ticks, tree = 1.48 MB, solutions = 10)
   8071  3726     7234.8784    33     7260.0000     7228.0000   174942    0.44%
   8072  3727     7234.9791    33     7260.0000     7228.0000   174945    0.44%
   8073  3728     7235.8273    27     7260.0000     7228.0000   174953    0.44%
   8074  3729     7235.9468    27     7260.0000     7228.0000   174955    0.44%
   8075  3730     7236.3364    29     7260.0000     7228.0000   174967    0.44%
   8076  3731     7236.4082    30     7260.0000     7228.0000   174971    0.44%
   8077  3732     7237.0356    33     7260.0000     7228.0000   174978    0.44%
   8078  3733     7237.3449    36     7260.0000     7228.0000   174983    0.44%
   8079  3734     7237.6974    41     7260.0000     7228.0000   174997    0.44%
   8080  3735     7237.9240    40     7260.0000     7228.0000   175004    0.44%
Elapsed time = 4.17 sec. (5883.17 ticks, tree = 2.52 MB, solutions = 10)
   9021  4366     7228.3027    42     7260.0000     7228.0000   200450    0.44%
   9022  4367     7228.3185    42     7260.0000     7228.0000   200458    0.44%
   9023  4368     7228.3398    49     7260.0000     7228.0000   200487    0.44%
   9024  4369     7228.3399    49     7260.0000     7228.0000   200488    0.44%
   9025  4370     7228.3533    48     7260.0000     7228.0000   200500    0.44%
   9026  4371     7228.3533    48     7260.0000     7228.0000   200501    0.44%
   9027  4372     7228.3533    47     7260.0000     7228.0000   200502    0.44%
   9028  4373     7228.3656    47     7260.0000     7228.0000   200507    0.44%
   9029  4374     7228.3716    46     7260.0000     7228.0000   200513    0.44%
   9030  4375     7228.3742    41     7260.0000     7228.0000   200514    0.44%
Elapsed time = 4.80 sec. (6840.69 ticks, tree = 3.10 MB, solutions = 10)
   9796  4860     7232.6001    49     7260.0000     7228.0000   225079    0.44%
   9797  4861     7232.6035    49     7260.0000     7228.0000   225080    0.44%
   9798  4862     7232.6833    50     7260.0000     7228.0000   225089    0.44%
   9799  4863     7232.8037    50     7260.0000     7228.0000   225102    0.44%
   9800  4864     7232.8804    52     7260.0000     7228.0000   225111    0.44%
   9801  4865     7232.9156    53     7260.0000     7228.0000   225113    0.44%
   9802  4866     7232.9764    50     7260.0000     7228.0000   225121    0.44%
   9803  4867     7233.1580    46     7260.0000     7228.0000   225132    0.44%
   9804  4868     7235.7059    48     7260.0000     7228.0000   225171    0.44%
   9805  4869     7235.9663    44     7260.0000     7228.0000   225182    0.44%
Elapsed time = 5.43 sec. (7798.61 ticks, tree = 3.59 MB, solutions = 10)
  10635  5478     7244.3295    38     7260.0000     7228.0000   249416    0.44%
  10636  5479     7244.5176    36     7260.0000     7228.0000   249427    0.44%
  10637  5478    infeasible           7260.0000     7228.0000   249427    0.44%
  10638  5477        cutoff           7260.0000     7228.0000   249432    0.44%
  10639  5476        cutoff           7260.0000     7228.0000   249660    0.44%
  10640  5475        cutoff           7260.0000     7228.0000   249710    0.44%
  10641  5474        cutoff           7260.0000     7228.0000   249852    0.44%
  10642  5475     7243.6262    38     7260.0000     7228.0000   250105    0.44%
  10643  5476     7243.6314    37     7260.0000     7228.0000   250108    0.44%
  10644  5475        cutoff           7260.0000     7228.0000   250120    0.44%
Elapsed time = 6.07 sec. (8780.78 ticks, tree = 4.27 MB, solutions = 10)
  11098  5800     7237.8335    39     7260.0000     7228.0000   262718    0.44%
  11099  5801     7237.8861    39     7260.0000     7228.0000   262729    0.44%
  11100  5800        cutoff           7260.0000     7228.0000   262756    0.44%
  11101  5801     7237.9153    39     7260.0000     7228.0000   262758    0.44%
  11102  5802     7238.2757    34     7260.0000     7228.0000   262770    0.44%
  11103  5801        cutoff           7260.0000     7228.0000   262798    0.44%
  11104  5802     7238.3446    36     7260.0000     7228.0000   262803    0.44%
  11105  5803     7238.5184    34     7260.0000     7228.0000   262811    0.44%
  11106  5802        cutoff           7260.0000     7228.0000   262829    0.44%
  14071  7892     7228.0684    44     7260.0000     7228.0000   339976    0.44%
Elapsed time = 8.85 sec. (12598.20 ticks, tree = 7.01 MB, solutions = 10)
  18520 11116     7238.5243    31     7260.0000     7228.0000   438255    0.44%
  18521 11117     7241.6947    37     7260.0000     7228.0000   438281    0.44%
  18522 11118     7241.7091    34     7260.0000     7228.0000   438282    0.44%
  18523 11117        cutoff           7260.0000     7228.0000   438284    0.44%
  18524 11116        cutoff           7260.0000     7228.0000   438293    0.44%
  18525 11117     7228.2739    47     7260.0000     7228.0000   438506    0.44%
  18526 11118     7228.4286    48     7260.0000     7228.0000   438559    0.44%
  18527 11117        cutoff           7260.0000     7228.0000   438636    0.44%
  18528 11118     7228.4975    49     7260.0000     7228.0000   438657    0.44%
  18529 11119     7228.6144    49     7260.0000     7228.0000   438672    0.44%
Elapsed time = 11.41 sec. (16427.56 ticks, tree = 12.04 MB, solutions = 10)
  22708 14083     7258.3771    32     7260.0000     7228.0000   534714    0.44%
  22709 14084     7229.9421    45     7260.0000     7228.0000   534840    0.44%
  22710 14085     7230.0242    39     7260.0000     7228.0000   534844    0.44%
  22711 14086     7230.1517    38     7260.0000     7228.0000   534851    0.44%
  22712 14087     7230.2459    39     7260.0000     7228.0000   534854    0.44%
  22713 14088     7230.3523    39     7260.0000     7228.0000   534858    0.44%
  22714 14089     7230.3567    41     7260.0000     7228.0000   534861    0.44%
  22715 14090     7230.3592    37     7260.0000     7228.0000   534863    0.44%
  22716 14091     7230.5320    37     7260.0000     7228.0000   534867    0.44%
  22717 14092     7230.9118    36     7260.0000     7228.0000   534879    0.44%
Elapsed time = 13.98 sec. (20248.24 ticks, tree = 18.57 MB, solutions = 10)
* 23570+14360                         7256.0000     7228.0000             0.39%
  26107 16067     7232.5889    47     7256.0000     7228.0272   627522    0.39%
  26108 16068     7234.3322    45     7256.0000     7228.0272   627564    0.39%
  26109 16069     7234.3498    41     7256.0000     7228.0272   627568    0.39%
  26110 16070     7234.3602    38     7256.0000     7228.0272   627570    0.39%
  26111 16071     7238.9883    43     7256.0000     7228.0272   627627    0.39%
  26112 16072     7240.0125    42     7256.0000     7228.0272   627646    0.39%
  26113 16073     7241.5629    35     7256.0000     7228.0272   627668    0.39%
  26114 16074     7241.5670    36     7256.0000     7228.0272   627669    0.39%
  26115 16075     7241.7905    36     7256.0000     7228.0272   627679    0.39%
  26116 16076     7241.8168    39     7256.0000     7228.0272   627683    0.39%
Elapsed time = 16.57 sec. (24072.63 ticks, tree = 22.33 MB, solutions = 11)
  30670 18608     7242.0872    30     7256.0000     7228.1966   731767    0.38%
  30671 18609     7242.0872    30     7256.0000     7228.1966   731768    0.38%
  30672 18610     7242.1057    33     7256.0000     7228.1966   731774    0.38%
  30673 18611     7242.1075    28     7256.0000     7228.1966   731776    0.38%
  30674 18612     7242.1139    28     7256.0000     7228.1966   731780    0.38%
  30675 18613     7242.1317    31     7256.0000     7228.1966   731784    0.38%
  30676 18614     7242.3913    34     7256.0000     7228.1966   731803    0.38%
  30677 18615     7242.4437    32     7256.0000     7228.1966   731809    0.38%
  30678 18616     7245.4345    33     7256.0000     7228.1966   731832    0.38%
  30679 18617     7246.2904    27     7256.0000     7228.1966   731840    0.38%
Elapsed time = 19.19 sec. (28001.38 ticks, tree = 24.10 MB, solutions = 11)
  34709 20602     7246.0225    33     7256.0000     7228.3458   831463    0.38%
  34710 20601        cutoff           7256.0000     7228.3458   831480    0.38%
  34711 20600    infeasible           7256.0000     7228.3458   831480    0.38%
  34712 20601     7239.2097    36     7256.0000     7228.3458   831541    0.38%
  34713 20602     7240.7468    30     7256.0000     7228.3458   831569    0.38%
  34714 20603     7241.3026    35     7256.0000     7228.3458   831576    0.38%
  34715 20602        cutoff           7256.0000     7228.3458   831608    0.38%
  34716 20601        cutoff           7256.0000     7228.3458   831635    0.38%
  34717 20602     7239.9647    44     7256.0000     7228.3459   831728    0.38%
  34718 20603     7240.0252    44     7256.0000     7228.3459   831732    0.38%
Elapsed time = 21.74 sec. (31829.89 ticks, tree = 26.00 MB, solutions = 11)
  38461 21898     7246.9914    36     7256.0000     7228.5295   932749    0.38%
  38462 21897        cutoff           7256.0000     7228.5295   932766    0.38%
  38463 21898     7247.0366    39     7256.0000     7228.5295   932769    0.38%
  38464 21899     7247.3359    39     7256.0000     7228.5295   932776    0.38%
  38465 21900     7247.5207    42     7256.0000     7228.5295   932787    0.38%
  38466 21901     7248.2797    39     7256.0000     7228.5295   932798    0.38%
  38467 21902     7249.0764    35     7256.0000     7228.5295   932810    0.38%
  38468 21903     7249.1331    35     7256.0000     7228.5295   932814    0.38%
  38469 21904     7249.4527    32     7256.0000     7228.5295   932829    0.38%
  38470 21905     7251.0945    28     7256.0000     7228.5295   932838    0.38%
Elapsed time = 24.30 sec. (35648.72 ticks, tree = 26.59 MB, solutions = 11)
  42773 23385        cutoff           7256.0000     7229.0873  1040245    0.37%
  42774 23384        cutoff           7256.0000     7229.0887  1040269    0.37%
  42775 23383        cutoff           7256.0000     7229.0889  1040353    0.37%
  42776 23384     7250.8693    36     7256.0000     7229.0906  1040466    0.37%
  42777 23385     7250.8773    38     7256.0000     7229.0906  1040469    0.37%
  42778 23384        cutoff           7256.0000     7229.0906  1040477    0.37%
  42779 23383        cutoff           7256.0000     7229.0906  1040482    0.37%
  42780 23382        cutoff           7256.0000     7229.0957  1040526    0.37%
  42781 23383     7235.5092    36     7256.0000     7229.0964  1040584    0.37%
  42782 23384     7242.6035    28     7256.0000     7229.0964  1040595    0.37%
Elapsed time = 26.90 sec. (39473.20 ticks, tree = 26.82 MB, solutions = 11)
* 44060+23602                         7255.0000     7229.3512             0.35%
  46780 24574     7245.7262    26     7255.0000     7229.8687  1141263    0.35%
  46781 24575     7246.2753    26     7255.0000     7229.8687  1141276    0.35%
  46782 24574        cutoff           7255.0000     7229.8687  1141292    0.35%
  46783 24573        cutoff           7255.0000     7229.8687  1141301    0.35%
  46784 24574     7240.8059    39     7255.0000     7229.8703  1141394    0.35%
  46785 24573        cutoff           7255.0000     7229.8703  1141440    0.35%
  46786 24574     7242.5827    41     7255.0000     7229.8703  1141476    0.35%
  46787 24575     7247.2046    31     7255.0000     7229.8703  1141505    0.35%
  46788 24575     7250.9473    38     7255.0000     7229.8703  1141541    0.35%
  46789 24576     7252.3958    37     7255.0000     7229.8703  1141545    0.35%
Elapsed time = 29.47 sec. (43298.76 ticks, tree = 27.67 MB, solutions = 12)
* 47879 24699      integral     0     7254.0000     7230.0110  1169212    0.33%
  50908 25759     7238.0871    34     7254.0000     7230.5360  1238562    0.32%
  50909 25760     7239.0462    34     7254.0000     7230.5360  1238575    0.32%
  50910 25761     7239.2762    32     7254.0000     7230.5360  1238580    0.32%
  50911 25762     7239.2949    32     7254.0000     7230.5360  1238582    0.32%
  50912 25763     7240.0033    32     7254.0000     7230.5360  1238593    0.32%
  50913 25764     7240.1040    33     7254.0000     7230.5360  1238596    0.32%
  50914 25765     7240.1090    32     7254.0000     7230.5360  1238598    0.32%
  50915 25766     7240.1092    32     7254.0000     7230.5360  1238599    0.32%
  50916 25767     7240.7984    30     7254.0000     7230.5360  1238609    0.32%
  50917 25766        cutoff           7254.0000     7230.5360  1238627    0.32%
Elapsed time = 32.06 sec. (47117.11 ticks, tree = 28.89 MB, solutions = 13)
  54970 26753     7238.7579    37     7254.0000     7231.2618  1334809    0.31%
  54971 26754     7243.2634    37     7254.0000     7231.2618  1334835    0.31%
  54972 26753        cutoff           7254.0000     7231.2618  1334850    0.31%
  54973 26752        cutoff           7254.0000     7231.2618  1334898    0.31%
  54974 26751        cutoff           7254.0000     7231.2627  1334988    0.31%
  54975 26752     7238.1447    33     7254.0000     7231.2631  1335082    0.31%
  54976 26753     7238.3436    30     7254.0000     7231.2631  1335094    0.31%
  54977 26754     7238.3491    29     7254.0000     7231.2631  1335096    0.31%
  54978 26755     7238.9575    33     7254.0000     7231.2631  1335109    0.31%
  54979 26756     7239.6081    30     7254.0000     7231.2631  1335120    0.31%
Elapsed time = 34.76 sec. (50940.99 ticks, tree = 29.94 MB, solutions = 13)
  59241 27551        cutoff           7254.0000     7232.0172  1439954    0.30%
  59242 27552     7246.4323    36     7254.0000     7232.0172  1439955    0.30%
  59243 27553     7246.5489    31     7254.0000     7232.0172  1439965    0.30%
  59244 27554     7246.5998    33     7254.0000     7232.0172  1439971    0.30%
  59245 27553        cutoff           7254.0000     7232.0172  1439979    0.30%
  59246 27554     7246.6020    32     7254.0000     7232.0172  1439980    0.30%
  59247 27555     7246.6040    31     7254.0000     7232.0172  1439982    0.30%
  59248 27556     7246.6112    31     7254.0000     7232.0172  1439986    0.30%
  59249 27555        cutoff           7254.0000     7232.0172  1439998    0.30%
  59250 27555     7246.6706    31     7254.0000     7232.0172  1439999    0.30%
Elapsed time = 37.33 sec. (54759.29 ticks, tree = 30.00 MB, solutions = 13)
  64181 28730        cutoff           7254.0000     7232.8233  1552690    0.29%
  64182 28731     7241.3048    45     7254.0000     7232.8233  1552786    0.29%
  64183 28732     7241.5575    44     7254.0000     7232.8233  1552803    0.29%
  64184 28731        cutoff           7254.0000     7232.8233  1552828    0.29%
  64185 28730        cutoff           7254.0000     7232.8233  1552842    0.29%
  64186 28729        cutoff           7254.0000     7232.8250  1552912    0.29%
  64187 28728        cutoff           7254.0000     7232.8250  1552922    0.29%
  64188 28727        cutoff           7254.0000     7232.8259  1552982    0.29%
  64189 28728     7247.6730    40     7254.0000     7232.8262  1553052    0.29%
  64190 28729     7247.9151    42     7254.0000     7232.8262  1553065    0.29%
Elapsed time = 39.91 sec. (58585.23 ticks, tree = 29.33 MB, solutions = 13)
  68886 29479     7242.1227    41     7254.0000     7233.5643  1665860    0.28%
  68887 29480     7242.1959    42     7254.0000     7233.5643  1665875    0.28%
  68888 29481     7242.5823    46     7254.0000     7233.5643  1665882    0.28%
  68889 29482     7242.7487    46     7254.0000     7233.5643  1665887    0.28%
  68890 29483     7242.7804    42     7254.0000     7233.5643  1665890    0.28%
  68891 29484     7243.3142    39     7254.0000     7233.5643  1665901    0.28%
  68892 29485     7244.2563    41     7254.0000     7233.5643  1665923    0.28%
  68893 29484        cutoff           7254.0000     7233.5643  1665929    0.28%
  68894 29485     7247.2601    40     7254.0000     7233.5643  1665978    0.28%
  68895 29484        cutoff           7254.0000     7233.5643  1665983    0.28%
Elapsed time = 42.52 sec. (62404.27 ticks, tree = 28.39 MB, solutions = 13)
  73711 29815     7249.7270    29     7254.0000     7234.3224  1782330    0.27%
  73712 29814        cutoff           7254.0000     7234.3224  1782371    0.27%
  73713 29813        cutoff           7254.0000     7234.3224  1782376    0.27%
  73714 29812        cutoff           7254.0000     7234.3227  1782389    0.27%
  73715 29813     7238.4672    42     7254.0000     7234.3227  1782492    0.27%
  73716 29814     7238.5747    42     7254.0000     7234.3227  1782513    0.27%
  73717 29815     7238.5965    39     7254.0000     7234.3227  1782521    0.27%
  73718 29816     7240.2799    46     7254.0000     7234.3227  1782559    0.27%
  73719 29815        cutoff           7254.0000     7234.3227  1782634    0.27%
  73720 29816     7240.9654    48     7254.0000     7234.3227  1782643    0.27%
Elapsed time = 45.07 sec. (66228.41 ticks, tree = 27.27 MB, solutions = 13)
  78523 29907     7248.8217    34     7254.0000     7235.1097  1900361    0.26%
  78524 29908     7239.3130    19     7254.0000     7235.1110  1900400    0.26%
  78525 29909     7239.4069    22     7254.0000     7235.1110  1900406    0.26%
  78526 29910     7239.4069    18     7254.0000     7235.1110  1900425    0.26%
  78527 29911     7239.4069    23     7254.0000     7235.1110  1900428    0.26%
  78528 29912     7239.4069    22     7254.0000     7235.1110  1900430    0.26%
  78529 29913     7239.4069    22     7254.0000     7235.1110  1900431    0.26%
  78530 29914     7239.4339    22     7254.0000     7235.1110  1900451    0.26%
  78531 29915     7239.4375    24     7254.0000     7235.1110  1900453    0.26%
  78532 29916     7239.4397    24     7254.0000     7235.1110  1900456    0.26%
Elapsed time = 47.64 sec. (70048.21 ticks, tree = 26.28 MB, solutions = 13)
  83347 29707     7250.6051    32     7254.0000     7235.9324  2019606    0.25%
  83348 29706        cutoff           7254.0000     7235.9324  2019614    0.25%
  83349 29705        cutoff           7254.0000     7235.9324  2019615    0.25%
  83350 29704    infeasible           7254.0000     7235.9324  2019615    0.25%
  83351 29703        cutoff           7254.0000     7235.9334  2019623    0.25%
  83352 29702        cutoff           7254.0000     7235.9340  2019648    0.25%
  83353 29703     7243.6886    43     7254.0000     7235.9344  2019721    0.25%
  83354 29702        cutoff           7254.0000     7235.9344  2019761    0.25%
  83355 29701        cutoff           7254.0000     7235.9344  2019798    0.25%
  83356 29700        cutoff           7254.0000     7235.9350  2019830    0.25%
Elapsed time = 50.18 sec. (73869.68 ticks, tree = 24.96 MB, solutions = 13)
  88268 29184     7251.6177    30     7254.0000     7236.8825  2134481    0.24%
  88269 29183        cutoff           7254.0000     7236.8825  2134483    0.24%
  88270 29182        cutoff           7254.0000     7236.8825  2134485    0.24%
  88271 29181     7252.2320    20     7254.0000     7236.8827  2134543    0.24%
  88272 29180        cutoff           7254.0000     7236.8828  2134548    0.24%
  88273 29179        cutoff           7254.0000     7236.8837  2134564    0.24%
  88274 29178    infeasible           7254.0000     7236.8841  2134564    0.24%
  88275 29177        cutoff           7254.0000     7236.8846  2134609    0.24%
  88276 29176        cutoff           7254.0000     7236.8850  2134614    0.24%
  88277 29175        cutoff           7254.0000     7236.8852  2134633    0.24%
Elapsed time = 52.75 sec. (77690.00 ticks, tree = 23.38 MB, solutions = 13)
  93375 28421        cutoff           7254.0000     7237.7673  2250754    0.22%
  93376 28420        cutoff           7254.0000     7237.7673  2250768    0.22%
  93377 28419        cutoff           7254.0000     7237.7684  2250809    0.22%
  93378 28420     7240.3774    34     7254.0000     7237.7685  2250875    0.22%
  93379 28421     7240.3863    34     7254.0000     7237.7685  2250877    0.22%
  93380 28422     7250.7346    37     7254.0000     7237.7685  2250935    0.22%
  93381 28422     7250.8812    34     7254.0000     7237.7685  2250936    0.22%
  93382 28421        cutoff           7254.0000     7237.7685  2250946    0.22%
  93383 28422     7245.1210    26     7254.0000     7237.7686  2251004    0.22%
  93384 28421        cutoff           7254.0000     7237.7686  2251009    0.22%
Elapsed time = 55.29 sec. (81513.34 ticks, tree = 21.81 MB, solutions = 13)
  98634 27136        cutoff           7254.0000     7238.7742  2371266    0.21%
  98635 27135        cutoff           7254.0000     7238.7746  2371306    0.21%
  98636 27134        cutoff           7254.0000     7238.7747  2371308    0.21%
  98637 27133        cutoff           7254.0000     7238.7747  2371313    0.21%
  98638 27132        cutoff           7254.0000     7238.7754  2371375    0.21%
  98639 27131        cutoff           7254.0000     7238.7754  2371392    0.21%
  98640 27130        cutoff           7254.0000     7238.7762  2371437    0.21%
  98641 27129        cutoff           7254.0000     7238.7762  2371472    0.21%
  98642 27130     7242.3899    48     7254.0000     7238.7788  2371516    0.21%
  98643 27131     7245.2507    40     7254.0000     7238.7788  2371574    0.21%
Elapsed time = 57.84 sec. (85336.32 ticks, tree = 19.98 MB, solutions = 13)
 104165 25310     7250.5278    34     7254.0000     7239.8684  2489536    0.19%
 104166 25309        cutoff           7254.0000     7239.8684  2489573    0.19%
 104167 25310     7242.5679    30     7254.0000     7239.8685  2489631    0.19%
 104168 25309        cutoff           7254.0000     7239.8685  2489666    0.19%
 104169 25310     7242.8963    27     7254.0000     7239.8685  2489686    0.19%
 104170 25311     7243.6917    32     7254.0000     7239.8685  2489712    0.19%
 104171 25312     7244.2386    30     7254.0000     7239.8685  2489723    0.19%
 104172 25313     7244.5195    29     7254.0000     7239.8685  2489738    0.19%
 104173 25314     7244.5222    26     7254.0000     7239.8685  2489740    0.19%
 104174 25313        cutoff           7254.0000     7239.8685  2489758    0.19%
Elapsed time = 60.40 sec. (89159.98 ticks, tree = 18.04 MB, solutions = 13)
 109900 22949        cutoff           7254.0000     7241.1503  2600492    0.18%
 109901 22948        cutoff           7254.0000     7241.1505  2600505    0.18%
 109902 22947        cutoff           7254.0000     7241.1507  2600526    0.18%
 109903 22946        cutoff           7254.0000     7241.1507  2600577    0.18%
 109904 22945        cutoff           7254.0000     7241.1508  2600598    0.18%
 109905 22944        cutoff           7254.0000     7241.1513  2600605    0.18%
 109906 22945     7249.2063    31     7254.0000     7241.1518  2600671    0.18%
 109907 22946     7249.2506    24     7254.0000     7241.1518  2600675    0.18%
 109908 22945        cutoff           7254.0000     7241.1518  2600690    0.18%
 109909 22944        cutoff           7254.0000     7241.1518  2600694    0.18%
Elapsed time = 62.96 sec. (92980.58 ticks, tree = 15.93 MB, solutions = 13)
 116393 19359        cutoff           7254.0000     7242.7454  2714382    0.16%
 116394 19358        cutoff           7254.0000     7242.7456  2714388    0.16%
 116395 19357        cutoff           7254.0000     7242.7465  2714400    0.16%
 116396 19356        cutoff           7254.0000     7242.7466  2714421    0.16%
 116397 19355        cutoff           7254.0000     7242.7466  2714452    0.16%
 116398 19354        cutoff           7254.0000     7242.7467  2714464    0.16%
 116399 19353        cutoff           7254.0000     7242.7475  2714527    0.16%
 116400 19352        cutoff           7254.0000     7242.7479  2714539    0.16%
 116401 19351        cutoff           7254.0000     7242.7480  2714559    0.16%
 116402 19350        cutoff           7254.0000     7242.7482  2714577    0.16%
Elapsed time = 65.48 sec. (96801.44 ticks, tree = 13.24 MB, solutions = 13)
 123370 14575     7248.9543    39     7254.0000     7244.6316  2825185    0.13%
 123371 14574        cutoff           7254.0000     7244.6316  2825192    0.13%
 123372 14573        cutoff           7254.0000     7244.6316  2825203    0.13%
 123373 14572        cutoff           7254.0000     7244.6316  2825214    0.13%
 123374 14571        cutoff           7254.0000     7244.6318  2825225    0.13%
 123375 14570        cutoff           7254.0000     7244.6327  2825228    0.13%
 123376 14569        cutoff           7254.0000     7244.6327  2825251    0.13%
 123377 14568        cutoff           7254.0000     7244.6335  2825283    0.13%
 123378 14567        cutoff           7254.0000     7244.6336  2825293    0.13%
 123379 14566        cutoff           7254.0000     7244.6340  2825301    0.13%
Elapsed time = 68.03 sec. (100665.35 ticks, tree = 10.16 MB, solutions = 13)
 131671  7933        cutoff           7254.0000     7247.4663  2921904    0.09%
 131672  7932        cutoff           7254.0000     7247.4669  2921938    0.09%
 131673  7931        cutoff           7254.0000     7247.4672  2921948    0.09%
 131674  7930        cutoff           7254.0000     7247.4678  2921951    0.09%
 131675  7929        cutoff           7254.0000     7247.4688  2921967    0.09%
 131676  7928        cutoff           7254.0000     7247.4689  2921973    0.09%
 131677  7927        cutoff           7254.0000     7247.4691  2921987    0.09%
 131678  7926        cutoff           7254.0000     7247.4692  2921991    0.09%
 131679  7925        cutoff           7254.0000     7247.4692  2921994    0.09%
 131680  7924        cutoff           7254.0000     7247.4694  2921998    0.09%
Elapsed time = 70.53 sec. (104484.14 ticks, tree = 6.04 MB, solutions = 13)

Cover cuts applied:  143
Mixed integer rounding cuts applied:  92
Zero-half cuts applied:  1
Lift and project cuts applied:  1
Gomory fractional cuts applied:  3

Root node processing (before b&c):
  Real time             =    0.02 sec. (12.80 ticks)
Sequential b&c:
  Real time             =   72.46 sec. (107599.23 ticks)
                          ------------
Total (root+branch&cut) =   72.47 sec. (107612.03 ticks)

Solution pool: 13 solutions saved.

MIP - Integer optimal solution:  Objective =  7.2540000000e+03
Solution time =   72.47 sec.  Iterations = 2979428  Nodes = 140150
Deterministic time = 107612.03 ticks  (1484.86 ticks/sec)


Incumbent solution written to file '/tmp/tmplxUDAy.cplex.sol'.
